NAME          
ROWS
 N  OBJ
 L  c1
 L  c2
 L  c3
COLUMNS
    MARKER    'MARKER'                 'INTORG'
    x[1]      c1        870
    x[1]      c2        357
    x[1]      c3        333
    x[1]      OBJ       -647
    x[2]      c1        706
    x[2]      c2        549
    x[2]      c3        632
    x[2]      OBJ       -113
    x[3]      c1        249
    x[3]      c2        197
    x[3]      c3        687
    x[3]      OBJ       -231
    x[4]      c1        886
    x[4]      c2        484
    x[4]      c3        668
    x[4]      OBJ       -773
    x[5]      c1        624
    x[5]      c2        44
    x[5]      c3        338
    x[5]      OBJ       -750
    x[6]      c1        109
    x[6]      c2        264
    x[6]      c3        309
    x[6]      OBJ       -842
    x[7]      c1        174
    x[7]      c2        212
    x[7]      c3        461
    x[7]      OBJ       -254
    x[8]      c1        436
    x[8]      c2        997
    x[8]      c3        654
    x[8]      OBJ       -639
    x[9]      c1        134
    x[9]      c2        328
    x[9]      c3        515
    x[9]      OBJ       -673
    x[10]     c1        535
    x[10]     c2        520
    x[10]     c3        96
    x[10]     OBJ       -105
    x[11]     c1        120
    x[11]     c2        213
    x[11]     c3        303
    x[11]     OBJ       -749
    x[12]     c1        305
    x[12]     c2        569
    x[12]     c3        386
    x[12]     OBJ       -941
    x[13]     c1        300
    x[13]     c2        211
    x[13]     c3        568
    x[13]     OBJ       -595
    x[14]     c1        466
    x[14]     c2        463
    x[14]     c3        372
    x[14]     OBJ       -121
    x[15]     c1        335
    x[15]     c2        455
    x[15]     c3        285
    x[15]     OBJ       -832
    x[16]     c1        570
    x[16]     c2        192
    x[16]     c3        935
    x[16]     OBJ       -898
    x[17]     c1        579
    x[17]     c2        571
    x[17]     c3        710
    x[17]     OBJ       -799
    x[18]     c1        601
    x[18]     c2        438
    x[18]     c3        523
    x[18]     OBJ       -903
    x[19]     c1        900
    x[19]     c2        765
    x[19]     c3        195
    x[19]     OBJ       -159
    x[20]     c1        376
    x[20]     c2        881
    x[20]     c3        258
    x[20]     OBJ       -829
    x[21]     c1        781
    x[21]     c2        373
    x[21]     c3        124
    x[21]     OBJ       -999
    x[22]     c1        662
    x[22]     c2        988
    x[22]     c3        225
    x[22]     OBJ       -86
    x[23]     c1        111
    x[23]     c2        682
    x[23]     c3        249
    x[23]     OBJ       -995
    x[24]     c1        945
    x[24]     c2        243
    x[24]     c3        939
    x[24]     OBJ       -255
    x[25]     c1        447
    x[25]     c2        497
    x[25]     c3        369
    x[25]     OBJ       -76
RHS
    rhs       c1        6110
    rhs       c2        5746
    rhs       c3        5567
RANGES
BOUNDS
 BV bounds    x[1]
 BV bounds    x[2]
 BV bounds    x[3]
 BV bounds    x[4]
 BV bounds    x[5]
 BV bounds    x[6]
 BV bounds    x[7]
 BV bounds    x[8]
 BV bounds    x[9]
 BV bounds    x[10]
 BV bounds    x[11]
 BV bounds    x[12]
 BV bounds    x[13]
 BV bounds    x[14]
 BV bounds    x[15]
 BV bounds    x[16]
 BV bounds    x[17]
 BV bounds    x[18]
 BV bounds    x[19]
 BV bounds    x[20]
 BV bounds    x[21]
 BV bounds    x[22]
 BV bounds    x[23]
 BV bounds    x[24]
 BV bounds    x[25]
ENDATA
